14
1 4
2 2
3 6
4 10
5 2
6 10
7 1
8 5
9 7
10 7
11 8
12 8
13 8
42
0 1 30
1 0 30
0 2 90
2 0 90
0 3 59
3 0 59
0 4 30
4 0 30
0 5 75
5 0 75
0 6 55
6 0 55
0 7 79
7 0 79
0 8 67
8 0 67
0 9 12
9 0 12
0 10 45
10 0 45
0 11 63
11 0 63
0 12 29
12 0 29
0 13 78
13 0 78
1 6 28
1 7 31
2 3 84
2 13 62
3 4 40
3 5 46
3 9 84
3 13 31
4 7 58
5 6 30
6 7 72
6 8 64
6 10 66
7 11 25
9 11 49
10 12 74
